min: c;

c = 3.88615252619014 * u5_t4_h2 + 3.88615252619014 * u5_t7_h2 + 3.51772597357577 * u5_t4_h3 + 3.51772597357577 * u5_t7_h3 + 3.31763025094723 * u5_t1_h4 + 3.31763025094723 * u5_t3_h4 + 3.31763025094723 * u5_t4_h4 + 3.31763025094723 * u5_t7_h4 + 3.13703638963475 * u5_t1_h5 + 3.13703638963475 * u5_t3_h5 + 3.13703638963475 * u5_t4_h5 + 3.13703638963475 * u5_t7_h5 + 3.60075061113977 * u5_t1_h6 + 3.60075061113977 * u5_t3_h6 + 3.60075061113977 * u5_t4_h6 + 3.60075061113977 * u5_t6_h6 + 3.60075061113977 * u5_t7_h6 + 3.99793918405622 * u5_t1_h7 + 3.99793918405622 * u5_t3_h7 + 3.99793918405622 * u5_t4_h7 + 3.99793918405622 * u5_t6_h7 + 5.69206469130384 * u5_t1_h8 + 5.69206469130384 * u5_t3_h8 + 5.69206469130384 * u5_t4_h8 + 5.69206469130384 * u5_t6_h8 + 4.4760088577552 * u5_t1_h9 + 4.4760088577552 * u5_t3_h9 + 4.4760088577552 * u5_t4_h9 + 4.4760088577552 * u5_t6_h9 + 4.99188957491298 * u5_t1_h10 + 4.99188957491298 * u5_t3_h10 + 4.99188957491298 * u5_t4_h10 + 4.99188957491298 * u5_t6_h10 + 3.93461903969397 * u5_t1_h11 + 3.93461903969397 * u5_t3_h11 + 3.93461903969397 * u5_t4_h11 + 3.93461903969397 * u5_t6_h11 + 6.13121850521712 * u5_t1_h12 + 6.13121850521712 * u5_t3_h12 + 6.13121850521712 * u5_t4_h12 + 6.13121850521712 * u5_t6_h12 + 4.37979848610741 * u5_t1_h13 + 4.37979848610741 * u5_t3_h13 + 4.37979848610741 * u5_t4_h13 + 4.37979848610741 * u5_t6_h13 + 4.37979848610741 * u5_t8_h13 + 5.90421083245576 * u5_t1_h14 + 5.90421083245576 * u5_t3_h14 + 5.90421083245576 * u5_t4_h14 + 5.90421083245576 * u5_t6_h14 + 5.90421083245576 * u5_t8_h14 + 5.88326405412993 * u5_t1_h15 + 5.88326405412993 * u5_t3_h15 + 5.88326405412993 * u5_t4_h15 + 5.88326405412993 * u5_t6_h15 + 5.88326405412993 * u5_t8_h15 + 5.88326405412993 * u5_t9_h15 + 5.9350735625453 * u5_t1_h16 + 5.9350735625453 * u5_t3_h16 + 5.9350735625453 * u5_t4_h16 + 5.9350735625453 * u5_t5_h16 + 5.9350735625453 * u5_t6_h16 + 5.9350735625453 * u5_t8_h16 + 5.9350735625453 * u5_t9_h16 + 6.0142838464235 * u5_t1_h17 + 6.0142838464235 * u5_t5_h17 + 6.0142838464235 * u5_t6_h17 + 6.0142838464235 * u5_t8_h17 + 6.0142838464235 * u5_t9_h17 + 6.0142838464235 * u5_t10_h17 + 6.13690149709776 * u5_t1_h18 + 6.13690149709776 * u5_t2_h18 + 6.13690149709776 * u5_t5_h18 + 6.13690149709776 * u5_t6_h18 + 6.13690149709776 * u5_t9_h18 + 6.13690149709776 * u5_t10_h18 + 5.40601004692321 * u5_t1_h19 + 5.40601004692321 * u5_t2_h19 + 5.40601004692321 * u5_t5_h19 + 5.40601004692321 * u5_t9_h19 + 5.40601004692321 * u5_t10_h19 + 5.24022862694901 * u5_t1_h20 + 5.24022862694901 * u5_t2_h20 + 5.24022862694901 * u5_t5_h20 + 5.24022862694901 * u5_t9_h20 + 5.24022862694901 * u5_t10_h20 + 5.71375423406457 * u5_t2_h21 + 5.71375423406457 * u5_t5_h21 + 5.71375423406457 * u5_t9_h21 + 5.71375423406457 * u5_t10_h21 + 5.64976474683623 * u5_t2_h22 + 5.64976474683623 * u5_t5_h22 + 5.64976474683623 * u5_t9_h22 + 5.64976474683623 * u5_t10_h22 + 5.18415407772079 * u5_t5_h23 + 5.18415407772079 * u5_t9_h23 + 5.18415407772079 * u5_t10_h23;
0 <= u5_t1_h4 <= 1;
0 <= u5_t1_h5 <= 1;
0 <= u5_t1_h6 <= 1;
0 <= u5_t1_h7 <= 1;
0 <= u5_t1_h8 <= 1;
0 <= u5_t1_h9 <= 1;
0 <= u5_t1_h10 <= 1;
0 <= u5_t1_h11 <= 1;
0 <= u5_t1_h12 <= 1;
0 <= u5_t1_h13 <= 1;
0 <= u5_t1_h14 <= 1;
0 <= u5_t1_h15 <= 1;
0 <= u5_t1_h16 <= 1;
0 <= u5_t1_h17 <= 1;
0 <= u5_t1_h18 <= 1;
0 <= u5_t1_h19 <= 1;
0 <= u5_t1_h20 <= 1;
u5_t1_h4 + u5_t1_h5 + u5_t1_h6 + u5_t1_h7 + u5_t1_h8 + u5_t1_h9 + u5_t1_h10 + u5_t1_h11 + u5_t1_h12 + u5_t1_h13 + u5_t1_h14 + u5_t1_h15 + u5_t1_h16 + u5_t1_h17 + u5_t1_h18 + u5_t1_h19 + u5_t1_h20 = 1;
0 <= u5_t2_h18 <= 1;
0 <= u5_t2_h19 <= 1;
0 <= u5_t2_h20 <= 1;
0 <= u5_t2_h21 <= 1;
0 <= u5_t2_h22 <= 1;
u5_t2_h18 + u5_t2_h19 + u5_t2_h20 + u5_t2_h21 + u5_t2_h22 = 3;
0 <= u5_t3_h4 <= 1;
0 <= u5_t3_h5 <= 1;
0 <= u5_t3_h6 <= 1;
0 <= u5_t3_h7 <= 1;
0 <= u5_t3_h8 <= 1;
0 <= u5_t3_h9 <= 1;
0 <= u5_t3_h10 <= 1;
0 <= u5_t3_h11 <= 1;
0 <= u5_t3_h12 <= 1;
0 <= u5_t3_h13 <= 1;
0 <= u5_t3_h14 <= 1;
0 <= u5_t3_h15 <= 1;
0 <= u5_t3_h16 <= 1;
u5_t3_h4 + u5_t3_h5 + u5_t3_h6 + u5_t3_h7 + u5_t3_h8 + u5_t3_h9 + u5_t3_h10 + u5_t3_h11 + u5_t3_h12 + u5_t3_h13 + u5_t3_h14 + u5_t3_h15 + u5_t3_h16 = 1;
0 <= u5_t4_h2 <= 1;
0 <= u5_t4_h3 <= 1;
0 <= u5_t4_h4 <= 1;
0 <= u5_t4_h5 <= 1;
0 <= u5_t4_h6 <= 1;
0 <= u5_t4_h7 <= 1;
0 <= u5_t4_h8 <= 1;
0 <= u5_t4_h9 <= 1;
0 <= u5_t4_h10 <= 1;
0 <= u5_t4_h11 <= 1;
0 <= u5_t4_h12 <= 1;
0 <= u5_t4_h13 <= 1;
0 <= u5_t4_h14 <= 1;
0 <= u5_t4_h15 <= 1;
0 <= u5_t4_h16 <= 1;
u5_t4_h2 + u5_t4_h3 + u5_t4_h4 + u5_t4_h5 + u5_t4_h6 + u5_t4_h7 + u5_t4_h8 + u5_t4_h9 + u5_t4_h10 + u5_t4_h11 + u5_t4_h12 + u5_t4_h13 + u5_t4_h14 + u5_t4_h15 + u5_t4_h16 = 3;
0 <= u5_t5_h16 <= 1;
0 <= u5_t5_h17 <= 1;
0 <= u5_t5_h18 <= 1;
0 <= u5_t5_h19 <= 1;
0 <= u5_t5_h20 <= 1;
0 <= u5_t5_h21 <= 1;
0 <= u5_t5_h22 <= 1;
0 <= u5_t5_h23 <= 1;
u5_t5_h16 + u5_t5_h17 + u5_t5_h18 + u5_t5_h19 + u5_t5_h20 + u5_t5_h21 + u5_t5_h22 + u5_t5_h23 = 2;
0 <= u5_t6_h6 <= 1;
0 <= u5_t6_h7 <= 1;
0 <= u5_t6_h8 <= 1;
0 <= u5_t6_h9 <= 1;
0 <= u5_t6_h10 <= 1;
0 <= u5_t6_h11 <= 1;
0 <= u5_t6_h12 <= 1;
0 <= u5_t6_h13 <= 1;
0 <= u5_t6_h14 <= 1;
0 <= u5_t6_h15 <= 1;
0 <= u5_t6_h16 <= 1;
0 <= u5_t6_h17 <= 1;
0 <= u5_t6_h18 <= 1;
u5_t6_h6 + u5_t6_h7 + u5_t6_h8 + u5_t6_h9 + u5_t6_h10 + u5_t6_h11 + u5_t6_h12 + u5_t6_h13 + u5_t6_h14 + u5_t6_h15 + u5_t6_h16 + u5_t6_h17 + u5_t6_h18 = 2;
0 <= u5_t7_h2 <= 1;
0 <= u5_t7_h3 <= 1;
0 <= u5_t7_h4 <= 1;
0 <= u5_t7_h5 <= 1;
0 <= u5_t7_h6 <= 1;
u5_t7_h2 + u5_t7_h3 + u5_t7_h4 + u5_t7_h5 + u5_t7_h6 = 1;
0 <= u5_t8_h13 <= 1;
0 <= u5_t8_h14 <= 1;
0 <= u5_t8_h15 <= 1;
0 <= u5_t8_h16 <= 1;
0 <= u5_t8_h17 <= 1;
u5_t8_h13 + u5_t8_h14 + u5_t8_h15 + u5_t8_h16 + u5_t8_h17 = 3;
0 <= u5_t9_h15 <= 1;
0 <= u5_t9_h16 <= 1;
0 <= u5_t9_h17 <= 1;
0 <= u5_t9_h18 <= 1;
0 <= u5_t9_h19 <= 1;
0 <= u5_t9_h20 <= 1;
0 <= u5_t9_h21 <= 1;
0 <= u5_t9_h22 <= 1;
0 <= u5_t9_h23 <= 1;
u5_t9_h15 + u5_t9_h16 + u5_t9_h17 + u5_t9_h18 + u5_t9_h19 + u5_t9_h20 + u5_t9_h21 + u5_t9_h22 + u5_t9_h23 = 1;
0 <= u5_t10_h17 <= 1;
0 <= u5_t10_h18 <= 1;
0 <= u5_t10_h19 <= 1;
0 <= u5_t10_h20 <= 1;
0 <= u5_t10_h21 <= 1;
0 <= u5_t10_h22 <= 1;
0 <= u5_t10_h23 <= 1;
u5_t10_h17 + u5_t10_h18 + u5_t10_h19 + u5_t10_h20 + u5_t10_h21 + u5_t10_h22 + u5_t10_h23 = 1;
